Version identifier: 22.1.0.0 | 2022-03-09 | 1a383f8ce
CPXPARAM_Read_DataCheck                          1
CPXPARAM_TimeLimit                               600
Tried aggregator 4 times.
MIP Presolve eliminated 164910 rows and 13272 columns.
MIP Presolve modified 1610 coefficients.
Aggregator did 155209 substitutions.
Reduced MIP has 13542 rows, 157245 columns, and 328359 nonzeros.
Reduced MIP has 157199 binaries, 46 generals, 0 SOSs, and 0 indicators.
Presolve time = 2.32 sec. (2460.55 ticks)
Tried aggregator 1 time.
Detecting symmetries...
Reduced MIP has 13542 rows, 157245 columns, and 328359 nonzeros.
Reduced MIP has 157199 binaries, 46 generals, 0 SOSs, and 0 indicators.
Presolve time = 0.50 sec. (280.50 ticks)
Probing fixed 70 vars, tightened 0 bounds.
Probing time = 0.96 sec. (81.31 ticks)
Clique table members: 317548.
MIP emphasis: balance optimality and feasibility.
MIP search method: dynamic search.
Parallel mode: deterministic, using up to 8 threads.
Root relaxation solution time = 3.07 sec. (1079.71 ticks)

        Nodes                                         Cuts/
   Node  Left     Objective  IInf  Best Integer    Best Bound    ItCnt     Gap

      0     0       46.3841  9716                     46.3841       26         
      0     0       73.0000  1331                    Cuts: 40    21583         
      0     0       73.0000  1425                    Cuts: 92    37001         
      0     0       73.0000  1132                ZeroHalf: 56    54183         
      0     0       73.0000  1020                ZeroHalf: 38    71493         
      0     0       73.0000  1116                ZeroHalf: 43    86395         

Clique cuts applied:  2
Zero-half cuts applied:  136
Lift and project cuts applied:  3
Gomory fractional cuts applied:  30

Root node processing (before b&c):
  Real time             =  600.03 sec. (280390.22 ticks)
Parallel b&c, 8 threads:
  Real time             =    0.00 sec. (0.00 ticks)
  Sync time (average)   =    0.00 sec.
  Wait time (average)   =    0.00 sec.
                          ------------
Total (root+branch&cut) =  600.03 sec. (280390.22 ticks)
